solving instance mcnd arcs c64 3 6 cubic
presolving:
(round 1, exhaustive) 30 del vars, 30 del conss, 0 add conss, 713 chg bounds, 0 chg sides, 0 chg coeffs, 273883 upgd conss, 0 impls, 0 clqs
   (55.3s) probing cycle finished: starting next cycle
   (55.4s) symmetry computation started: requiring (bin +, int +, cont +), (fixed: bin -, int -, cont -)
   (58.1s) no symmetry present (symcode time: 0.89)
presolving (2 rounds: 2 fast, 2 medium, 2 exhaustive):
 60 deleted vars, 30 deleted constraints, 0 added constraints, 1396 tightened bounds, 0 added holes, 0 changed sides, 0 changed coefficients
 274566 implications, 0 cliques
presolved problem has 275249 variables (683 bin, 0 int, 0 impl, 274566 cont) and 287962 constraints
 273883 constraints of type <varbound>
  13396 constraints of type <linear>
    683 constraints of type <nonlinear>
Presolving Time: 56.24

 time | node  | left  |LP iter|LP it/n|mem/heur|mdpt |vars |cons |rows |cuts |sepa|confs|strbr|  dualbound   | primalbound  |  gap   | compl. 
t 796s|     1 |     0 | 39601 |     - |  trysol|   0 | 277k| 287k| 290k|   0 |  0 |   0 |   0 |-2.612201e+06 | 2.076188e+06 |    Inf | unknown
 1990s|     1 |     0 | 84891 |     - |  1864M |   0 | 277k| 287k| 290k|   0 |  0 |   0 |   0 |-1.630856e+06 | 2.076188e+06 |    Inf | unknown
 3600s|     1 |     0 |123617 |     - |  1934M |   0 | 277k| 287k| 291k| 765 |  1 |   0 |   0 |-1.630856e+06 | 2.076188e+06 |    Inf | unknown
(node 1) LP solver hit time limit in LP 3 -- using pseudo solution instead

SCIP Status        : solving was interrupted [time limit reached]
Solving Time (sec) : 3600.04
Solving Nodes      : 1
Primal Bound       : +2.07618834723449e+06 (1 solutions)
Dual Bound         : -1.63085570492628e+06
Gap                : infinite
primal_bound = 2.076188347234491e6, dual_bound = -1.6308557049262822e6, gap = 178.55047000425577, time = 3610.83
